
Gurobi 10.0.1 (linux64) logging started Sun Nov 26 15:56:12 2023

Set parameter LogFile to value "ArtificialInstance/ExperimentV2/S3T4K2/AdRo/gurobiDoRo59.txt"
Gurobi Optimizer version 10.0.1 build v10.0.1rc0 (linux64)

CPU model: AMD EPYC 7H12 64-Core Processor, instruction set [SSE2|AVX|AVX2]
Thread count: 128 physical cores, 128 logical processors, using up to 32 threads

Academic license 656792 - for non-commercial use only - registered to b.___@student.vu.nl
Optimize a model with 9083 rows, 8653 columns and 33587 nonzeros
Model fingerprint: 0x0f09eb74
Variable types: 1 continuous, 8652 integer (8652 binary)
Coefficient statistics:
  Matrix range     [1e+00, 4e+01]
  Objective range  [1e+00, 2e+01]
  Bounds range     [1e+00, 1e+00]
  RHS range        [1e+00, 1e+00]
Presolve removed 3532 rows and 3244 columns
Presolve time: 0.11s
Presolved: 5551 rows, 5409 columns, 21013 nonzeros
Variable types: 1 continuous, 5408 integer (5408 binary)

Root relaxation: objective 1.049868e+02, 1828 iterations, 0.06 seconds (0.04 work units)

    Nodes    |    Current Node    |     Objective Bounds      |     Work
 Expl Unexpl |  Obj  Depth IntInf | Incumbent    BestBd   Gap | It/Node Time

H    0     0                     104.9867503   41.54451  60.4%     -    0s
     0     0          -    0       104.98675  104.98675  0.00%     -    0s

Explored 1 nodes (2543 simplex iterations) in 0.22 seconds (0.15 work units)
Thread count was 32 (of 128 available processors)

Solution count 1: 104.987 

Optimal solution found (tolerance 1.00e-04)
Best objective 1.049867503113e+02, best bound 1.049867503113e+02, gap 0.0000%
